letting initialStacks = [37, 22, 40, 43, 45, 31, 20, 4, 21, 48, 44, 42, 26, 35, 41, 15, 7, 9, 8, 18, 10, 11, 19, 14, 1, 49, 38, 6, 36, 5, 29, 24, 23, 28, 51, 30, 25, 47, 39, 34, 32, 3, 12, 16, 13, 50, 2, 46, 33, 27, 17]
